95 
300 
19.1 24.3 0 0
18.2 24 0 -99
12.6 24.9 20 -13
14.4 28 20 -12
16.9 28.1 -20 -73
20.7 28.2 -20 -90
12.5 26.6 -20 -131
21.8 27.3 -20 -82
12.5 22.6 20 -24
22.5 17 -30 -72
19.9 15 30 -25
14.9 15.1 30 -10
11.5 18.6 -30 -83
12.4 29.8 -30 -72
17.8 28.1 30 -14
9.1 29.8 40 -13
10 32.6 40 -22
13.9 33.1 -40 -110
19.95 10.3 40 -24
15.2 8 -40 -123
14.7 31.2 -50 -115
7.4 36.5 50 -11
21 25.5 50 -16
18 25.3 10 -27
19.5 24.7 -10 -117
21.4 21.8 -10 -80
16 21.4 -10 -98
18.65 26.2 -10 -117
17.9 28.9 10 -19
14.3 19.9 -20 -96
17 19 -20 -60
10.8 21 -20 -66
15.7 23.7 10 -16
